
n_res = 4;
rcap = [44, 44, 565, 541];
rtype = [1, 1, 2, 2];
n_tasks = 50;
modes =  [{1, 2, 3, 4, 5, 6}, {7, 8, 9, 10, 11, 12}, {13, 14, 15, 16, 17, 18}, {19, 20, 21, 22, 23, 24}, {25, 26, 27, 28, 29, 30}, {31, 32, 33, 34, 35, 36}, {37, 38, 39, 40, 41, 42}, {43, 44, 45, 46, 47, 48}, {49, 50, 51, 52, 53, 54}, {55, 56, 57, 58, 59, 60}, {61, 62, 63, 64, 65, 66}, {67, 68, 69, 70, 71, 72}, {73, 74, 75, 76, 77, 78}, {79, 80, 81, 82, 83, 84}, {85, 86, 87, 88, 89, 90}, {91, 92, 93, 94, 95, 96}, {97, 98, 99, 100, 101, 102}, {103, 104, 105, 106, 107, 108}, {109, 110, 111, 112, 113, 114}, {115, 116, 117, 118, 119, 120}, {121, 122, 123, 124, 125, 126}, {127, 128, 129, 130, 131, 132}, {133, 134, 135, 136, 137, 138}, {139, 140, 141, 142, 143, 144}, {145, 146, 147, 148, 149, 150}, {151, 152, 153, 154, 155, 156}, {157, 158, 159, 160, 161, 162}, {163, 164, 165, 166, 167, 168}, {169, 170, 171, 172, 173, 174}, {175, 176, 177, 178, 179, 180}, {181, 182, 183, 184, 185, 186}, {187, 188, 189, 190, 191, 192}, {193, 194, 195, 196, 197, 198}, {199, 200, 201, 202, 203, 204}, {205, 206, 207, 208, 209, 210}, {211, 212, 213, 214, 215, 216}, {217, 218, 219, 220, 221, 222}, {223, 224, 225, 226, 227, 228}, {229, 230, 231, 232, 233, 234}, {235, 236, 237, 238, 239, 240}, {241, 242, 243, 244, 245, 246}, {247, 248, 249, 250, 251, 252}, {253, 254, 255, 256, 257, 258}, {259, 260, 261, 262, 263, 264}, {265, 266, 267, 268, 269, 270}, {271, 272, 273, 274, 275, 276}, {277, 278, 279, 280, 281, 282}, {283, 284, 285, 286, 287, 288}, {289, 290, 291, 292, 293, 294}, {295, 296, 297, 298, 299, 300}];
succ =  [{50, 47, 44, 31, 28, 27, 22, 21, 20, 19, 18, 15, 14}, {50, 47, 45, 44, 42, 38, 28, 26, 22, 15, 14}, {49, 48, 46, 44, 33, 29, 26, 24, 22, 10}, {50, 49, 38, 36, 28, 26, 22, 15, 12}, {48, 46, 41, 29, 27, 22, 20, 18, 13}, {50, 45, 42, 41, 39, 38, 37, 36, 32, 31, 29, 28, 27}, {48, 46, 45, 44, 42, 41, 39, 38, 36, 32, 31, 28, 26}, {47, 44, 43, 42, 38, 36, 28, 15}, {48, 43, 38, 36, 30, 28, 15}, {50, 45, 43, 41, 40, 39, 38, 37, 36, 31, 30, 28}, {47, 43, 41, 39, 37, 35, 28, 19}, {47, 45, 44, 42, 41, 39, 37, 34, 31, 29}, {44, 40, 39, 38, 37, 36, 35, 28}, {49, 48, 46, 39, 37, 36, 35, 34}, {46, 41, 40, 37, 32, 29}, {47, 43, 39, 38, 30, 28}, {41, 40, 38, 36, 34}, {49, 42, 37, 34}, {48, 42, 40, 36}, {45, 39, 38, 37}, {40, 39, 38, 35}, {43, 39, 30}, {36, 34, 31}, {36, 35, 34}, {44, 38, 36}, {37, 34}, {40, 35}, {34}, {35}, {34}, {35}, {34}, {47}, {}, {}, {}, {}, {}, {}, {}, {}, {}, {}, {}, {}, {}, {}, {}, {}, {}];
n_opt = 300;
dur = [3, 6, 9, 18, 19, 20, 1, 2, 3, 7, 14, 15, 1, 7, 10, 14, 19, 20, 2, 3, 4, 6, 9, 12, 1, 4, 5, 6, 9, 18, 1, 2, 6, 10, 11, 12, 3, 4, 5, 11, 13, 15, 1, 4, 5, 8, 9, 18, 6, 9, 10, 15, 19, 20, 1, 2, 3, 8, 12, 15, 1, 3, 5, 6, 10, 13, 3, 4, 8, 11, 12, 13, 2, 4, 7, 9, 10, 13, 4, 5, 7, 8, 13, 16, 2, 7, 11, 12, 13, 17, 2, 6, 10, 15, 16, 20, 2, 3, 10, 11, 16, 20, 1, 2, 5, 6, 9, 16, 4, 8, 10, 16, 18, 19, 2, 6, 10, 14, 15, 16, 4, 7, 12, 17, 18, 20, 1, 4, 5, 8, 16, 20, 5, 11, 14, 15, 16, 20, 1, 11, 13, 18, 19, 20, 2, 5, 12, 13, 14, 17, 3, 5, 6, 7, 8, 14, 5, 7, 16, 17, 18, 19, 7, 8, 10, 15, 16, 17, 5, 6, 7, 11, 15, 16, 3, 4, 13, 14, 16, 18, 2, 3, 10, 11, 13, 17, 2, 4, 5, 10, 11, 20, 4, 5, 8, 9, 10, 18, 3, 4, 9, 14, 15, 18, 4, 10, 12, 13, 19, 20, 10, 12, 13, 14, 17, 19, 6, 7, 8, 9, 15, 16, 5, 6, 7, 8, 9, 11, 8, 10, 11, 12, 17, 19, 1, 6, 7, 13, 14, 15, 3, 4, 8, 11, 15, 16, 3, 4, 10, 15, 16, 20, 3, 7, 10, 12, 13, 15, 3, 4, 12, 16, 17, 18, 2, 11, 16, 18, 19, 20, 3, 4, 12, 16, 17, 18, 5, 8, 10, 11, 14, 16, 1, 4, 8, 9, 14, 17, 3, 7, 8, 11, 15, 16, 3, 4, 9, 16, 19, 20];
rreq = [|5, 5, 5, 5, 5, 5, 3, 3, 3, 3, 3, 3, 5, 4, 4, 4, 4, 4, 5, 4, 4, 4, 4, 4, 4, 3, 3, 3, 3, 3, 5, 5, 5, 5, 5, 5, 4, 4, 4, 3, 2, 2, 3, 2, 2, 2, 2, 2, 4, 3, 3, 3, 2, 2, 4, 4, 4, 4, 4, 4, 3, 3, 3, 3, 3, 3, 4, 3, 2, 2, 2, 1, 5, 3, 3, 2, 1, 1, 4, 4, 4, 4, 4, 4, 4, 3, 3, 3, 3, 3, 2, 2, 2, 2, 2, 2, 5, 4, 3, 3, 1, 1, 2, 2, 2, 2, 1, 1, 1, 1, 1, 1, 1, 1, 3, 3, 3, 3, 2, 2, 5, 3, 3, 2, 2, 1, 3, 3, 3, 3, 2, 2, 4, 3, 3, 3, 3, 3, 5, 4, 4, 3, 2, 2, 4, 3, 3, 2, 2, 2, 4, 3, 3, 2, 2, 1, 5, 3, 3, 2, 2, 1, 4, 4, 3, 3, 3, 2, 3, 2, 2, 2, 1, 1, 5, 4, 4, 4, 4, 4, 4, 4, 4, 4, 4, 4, 1, 1, 1, 1, 1, 1, 3, 3, 3, 3, 3, 3, 2, 1, 1, 1, 1, 1, 4, 4, 4, 4, 4, 4, 1, 1, 1, 1, 1, 1, 4, 3, 2, 2, 2, 1, 4, 4, 4, 4, 4, 4, 2, 2, 2, 1, 1, 1, 4, 4, 4, 3, 3, 2, 5, 4, 4, 4, 4, 4, 5, 4, 3, 3, 3, 2, 3, 2, 2, 2, 2, 2, 4, 4, 4, 4, 4, 4, 3, 3, 2, 2, 1, 1, 5, 3, 3, 3, 2, 1, 4, 3, 3, 2, 2, 2, 1, 1, 1, 1, 1, 1, 4, 4, 3, 2, 2, 1, 3, 3, 2, 2, 2, 1
 |1, 1, 1, 1, 1, 1, 4, 3, 2, 2, 1, 1, 3, 3, 3, 3, 3, 3, 1, 1, 1, 1, 1, 1, 2, 2, 2, 1, 1, 1, 4, 3, 3, 2, 1, 1, 5, 4, 3, 2, 1, 1, 3, 3, 3, 2, 1, 1, 1, 1, 1, 1, 1, 1, 4, 3, 3, 3, 1, 1, 4, 3, 3, 3, 2, 2, 2, 1, 1, 1, 1, 1, 5, 4, 4, 3, 2, 2, 4, 4, 3, 3, 1, 1, 4, 3, 3, 2, 1, 1, 2, 2, 2, 2, 2, 2, 5, 4, 4, 3, 3, 2, 4, 4, 4, 4, 4, 4, 1, 1, 1, 1, 1, 1, 3, 3, 3, 2, 1, 1, 4, 3, 3, 2, 2, 1, 2, 2, 2, 1, 1, 1, 5, 3, 3, 3, 2, 1, 2, 1, 1, 1, 1, 1, 4, 4, 4, 4, 4, 4, 1, 1, 1, 1, 1, 1, 4, 3, 3, 3, 2, 1, 1, 1, 1, 1, 1, 1, 2, 2, 2, 2, 2, 2, 4, 4, 4, 4, 3, 3, 5, 4, 4, 4, 3, 3, 4, 3, 3, 3, 3, 3, 4, 4, 4, 4, 3, 3, 5, 3, 3, 3, 1, 1, 5, 4, 4, 4, 4, 4, 3, 3, 2, 2, 1, 1, 4, 3, 3, 2, 2, 2, 2, 2, 2, 2, 2, 2, 5, 4, 4, 3, 3, 2, 4, 4, 4, 4, 4, 4, 2, 2, 2, 2, 2, 2, 4, 4, 4, 4, 3, 3, 4, 4, 4, 4, 4, 4, 4, 4, 4, 3, 3, 3, 3, 2, 2, 1, 1, 1, 5, 4, 4, 3, 3, 3, 5, 5, 5, 5, 5, 5, 4, 4, 4, 4, 4, 4, 4, 3, 3, 2, 2, 2, 3, 2, 2, 1, 1, 1
 |10, 9, 8, 7, 6, 5, 14, 13, 13, 13, 12, 12, 13, 12, 12, 11, 11, 11, 20, 19, 18, 18, 18, 17, 17, 16, 16, 16, 15, 15, 20, 17, 16, 15, 14, 13, 18, 15, 14, 9, 7, 5, 1, 1, 1, 1, 1, 1, 16, 15, 14, 14, 13, 13, 16, 15, 15, 13, 12, 11, 11, 10, 7, 5, 3, 2, 5, 4, 4, 3, 3, 3, 7, 5, 4, 3, 3, 1, 12, 11, 7, 5, 3, 2, 10, 10, 10, 10, 10, 10, 3, 2, 2, 2, 2, 2, 5, 5, 5, 5, 5, 5, 11, 11, 10, 10, 8, 8, 17, 14, 12, 9, 8, 6, 9, 8, 7, 7, 7, 6, 18, 14, 9, 7, 5, 1, 18, 15, 12, 7, 4, 2, 18, 17, 17, 17, 17, 17, 14, 14, 14, 14, 14, 14, 8, 8, 7, 7, 7, 6, 15, 14, 13, 10, 7, 5, 12, 11, 10, 8, 4, 3, 9, 8, 8, 8, 8, 8, 15, 13, 11, 8, 6, 6, 8, 6, 5, 5, 4, 2, 11, 10, 9, 7, 7, 6, 13, 11, 10, 9, 9, 8, 3, 3, 2, 2, 1, 1, 12, 10, 8, 5, 5, 1, 16, 16, 13, 11, 9, 6, 20, 18, 17, 16, 15, 15, 19, 19, 19, 18, 18, 17, 9, 8, 8, 8, 7, 7, 14, 14, 12, 11, 10, 8, 19, 15, 15, 13, 11, 8, 9, 7, 6, 6, 4, 4, 12, 9, 9, 8, 7, 5, 17, 16, 14, 11, 10, 9, 12, 10, 8, 7, 5, 3, 19, 14, 10, 7, 6, 4, 11, 10, 10, 8, 7, 4, 20, 20, 20, 20, 20, 20, 18, 17, 16, 16, 14, 14, 8, 7, 7, 6, 4, 3, 3, 3, 3, 3, 3, 3
 |12, 11, 10, 9, 9, 8, 13, 12, 10, 9, 8, 7, 18, 13, 12, 7, 4, 2, 12, 12, 11, 10, 8, 8, 18, 16, 14, 11, 9, 8, 17, 16, 15, 13, 12, 11, 20, 17, 14, 14, 10, 9, 9, 8, 7, 6, 6, 5, 12, 12, 12, 11, 11, 10, 15, 14, 12, 10, 8, 5, 17, 16, 16, 15, 14, 14, 14, 13, 13, 13, 11, 11, 11, 11, 11, 11, 11, 11, 3, 2, 2, 1, 1, 1, 19, 14, 12, 10, 8, 5, 14, 12, 11, 10, 9, 8, 13, 13, 12, 12, 11, 10, 8, 7, 6, 5, 5, 4, 19, 16, 14, 11, 9, 6, 9, 9, 8, 8, 7, 7, 20, 14, 11, 10, 4, 4, 18, 14, 10, 7, 4, 3, 11, 11, 10, 9, 9, 9, 14, 14, 13, 14, 14, 13, 8, 7, 5, 5, 3, 3, 14, 14, 14, 13, 13, 12, 10, 7, 7, 5, 4, 3, 16, 14, 10, 8, 5, 3, 13, 11, 9, 8, 7, 4, 9, 8, 8, 7, 6, 5, 15, 13, 11, 9, 9, 7, 5, 4, 4, 3, 2, 2, 9, 8, 8, 7, 7, 6, 9, 8, 8, 8, 8, 8, 14, 13, 9, 9, 5, 2, 6, 6, 5, 5, 4, 3, 9, 8, 6, 5, 3, 2, 17, 16, 15, 14, 10, 9, 17, 14, 12, 10, 9, 8, 6, 6, 4, 4, 2, 2, 9, 8, 7, 6, 5, 4, 14, 14, 14, 14, 13, 13, 4, 3, 3, 3, 3, 3, 3, 3, 3, 2, 1, 1, 12, 12, 8, 6, 6, 4, 13, 12, 11, 10, 10, 9, 19, 17, 15, 12, 11, 9, 10, 10, 11, 10, 9, 8, 10, 9, 8, 7, 7, 6, 7, 7, 7, 6, 5, 5|];